language Essence 1.3

letting class be function(1 --> 1, 2 --> 1, 3 --> 1, 4 --> 1, 5 --> 2, 6 --> 2, 7 --> 1, 8 --> 1)
letting deck_length be 78
letting deck_width be 78
letting length be function(1 --> 3, 2 --> 2, 3 --> 61, 4 --> 1, 5 --> 1, 6 --> 1, 7 --> 1, 8 --> 2)
letting n_classes be 2
letting n_containers be 8
letting separation be function({1, 2} --> 9)
letting width be function(1 --> 28, 2 --> 14, 3 --> 76, 4 --> 23, 5 --> 19, 6 --> 9, 7 --> 4, 8 --> 1)
